0 4824.60
1 4824.60
2 4807.54
3 4807.54
4 4807.54
5 4807.54
6 4764.73
7 4764.73
8 4764.73
9 4764.73
10 4745.46
11 4745.46
12 4745.46
13 4744.34
14 4744.34
15 4744.34
16 4735.72
17 4735.72
18 4735.72
19 4735.72
20 4735.72
21 4735.72
22 4735.36
23 4735.36
24 4695.58
25 4695.58
26 4695.58
27 4695.58
28 4695.58
29 4695.58
30 4695.58
31 4695.58
32 4683.51
33 4660.58
34 4660.58
35 4660.58
36 4660.58
37 4638.84
38 4638.84
39 4638.84
40 4638.84
41 4638.84
42 4618.87
43 4618.87
44 4618.87
45 4618.87
46 4618.87
47 4618.87
48 4618.87
49 4618.87
50 4611.89
51 4587.40
52 4587.40
53 4587.40
54 4587.40
55 4587.40
56 4587.40
57 4587.40
58 4587.40
59 4587.40
60 4587.40
61 4587.40
62 4587.40
63 4587.40
64 4587.40
65 4566.85
66 4566.85
67 4566.85
68 4566.85
69 4566.85
70 4566.85
71 4566.85
72 4566.85
73 4566.85
74 4566.85
75 4566.85
76 4566.85
77 4566.85
78 4566.85
79 4566.85
80 4566.85
81 4566.85
82 4566.85
83 4566.85
84 4566.85
85 4566.85
86 4566.85
87 4566.85
88 4566.85
89 4566.85
90 4566.85
91 4566.85
92 4566.85
93 4566.85
94 4552.73
95 4552.73
96 4552.73
97 4552.73
98 4552.20
99 4552.20
100 4552.20
101 4552.20
102 4552.20
103 4552.20
104 4552.20
105 4552.20
106 4552.20
107 4552.20
108 4552.20
109 4552.20
110 4552.20
111 4552.20
112 4552.20
113 4552.20
114 4552.20
115 4552.20
116 4552.20
117 4552.20
118 4552.20
119 4552.20
120 4552.20
121 4552.20
122 4552.20
123 4552.20
124 4552.20
125 4552.20
126 4552.20
127 4552.20
128 4552.20
129 4552.20
130 4552.20
131 4552.20
132 4552.20
133 4552.20
134 4552.20
135 4552.09
136 4552.09
137 4552.09
138 4552.09
139 4552.09
140 4552.09
141 4552.09
142 4552.09
143 4552.09
144 4552.09
145 4552.09
146 4552.09
147 4552.09
148 4552.09
149 4552.09
150 4552.09
151 4552.09
152 4552.09
153 4552.09
154 4552.09
155 4552.09
156 4552.09
157 4552.09
158 4552.09
159 4552.09
160 4552.09
161 4540.26
162 4540.26
163 4540.26
164 4540.26
165 4540.26
166 4540.26
167 4539.62
168 4539.62
169 4539.62
170 4539.62
171 4539.62
172 4539.62
173 4539.62
174 4539.62
175 4539.62
176 4539.62
177 4539.62
178 4539.62
179 4539.62
180 4539.62
181 4539.62
182 4539.62
183 4539.62
184 4539.62
185 4539.62
186 4539.62
187 4539.62
188 4539.62
189 4539.62
190 4539.62
191 4539.62
192 4539.62
193 4539.62
194 4539.62
195 4539.62
196 4539.62
197 4539.62
198 4539.62
199 4539.62
200 4539.62
201 4539.62
202 4539.62
203 4539.62
204 4539.62
205 4539.62
206 4539.62
207 4539.62
208 4539.62
209 4539.62
210 4539.62
211 4539.62
212 4539.62
213 4539.62
214 4539.62
215 4539.62
216 4539.62
217 4539.62
218 4539.62
219 4539.62
220 4539.62
221 4539.62
222 4539.62
223 4539.62
224 4539.62
225 4539.62
226 4539.62
227 4539.62
228 4539.62
229 4539.62
230 4539.62
231 4539.62
232 4539.62
233 4539.62
234 4539.62
235 4539.62
236 4539.62
237 4539.62
238 4539.62
239 4539.62
240 4539.62
241 4539.62
242 4539.62
243 4539.62
244 4539.62
245 4539.62
246 4539.62
247 4539.62
248 4539.62
249 4539.62
250 4539.62
251 4539.62
252 4539.62
253 4539.62
254 4539.62
255 4539.62
256 4539.62
257 4539.62
258 4539.62
259 4539.62
260 4539.62
261 4539.62
262 4539.62
263 4539.62
264 4539.62
265 4539.62
266 4539.62
267 4539.62
268 4539.62
269 4539.62
270 4539.62
271 4539.62
272 4539.62
273 4539.62
274 4539.62
275 4539.62
276 4539.62
277 4539.62
278 4539.62
279 4517.44
280 4517.44
281 4517.44
282 4517.44
283 4517.44
284 4517.44
285 4517.44
286 4517.44
287 4517.44
288 4517.44
289 4517.44
290 4517.44
291 4517.44
292 4517.44
293 4517.44
294 4517.44
295 4517.44
296 4517.44
297 4517.44
298 4517.44
299 4517.44
300 4517.44
301 4517.44
302 4517.44
303 4517.44
304 4517.44
305 4517.44
306 4517.44
307 4517.44
308 4517.44
309 4517.44
310 4517.44
311 4517.44
312 4517.44
313 4517.44
314 4517.44
315 4517.44
316 4517.44
317 4517.44
318 4517.44
319 4517.44
320 4517.44
321 4517.44
322 4517.44
323 4517.44
324 4517.44
325 4517.44
326 4517.44
327 4517.44
328 4517.44
329 4517.44
330 4517.44
331 4517.44
332 4517.44
333 4517.44
334 4517.44
335 4517.44
336 4517.44
337 4517.44
338 4517.44
339 4517.44
340 4517.44
341 4517.44
342 4517.44
343 4517.44
344 4517.44
345 4517.44
346 4517.44
347 4517.44
348 4517.44
349 4517.44
350 4517.44
351 4517.44
352 4517.44
353 4517.44
354 4517.44
355 4517.44
356 4517.44
357 4517.44
358 4517.44
359 4517.44
360 4517.44
361 4517.44
362 4517.44
363 4517.44
364 4517.44
365 4517.44
366 4517.44
367 4517.44
368 4517.44
369 4517.44
370 4517.44
371 4517.44
372 4517.44
373 4517.44
374 4517.44
375 4517.44
376 4517.44
377 4517.44
378 4517.44
379 4517.44
380 4517.44
381 4517.44
382 4517.44
383 4517.44
384 4517.44
385 4517.44
386 4517.44
387 4517.44
388 4517.44
389 4517.44
390 4517.44
391 4517.44
392 4517.44
393 4517.44
394 4517.44
395 4517.44
396 4517.44
397 4517.44
398 4517.44
399 4517.44
400 4517.44
401 4517.44
402 4517.44
403 4517.44
404 4517.44
405 4517.44
406 4517.44
407 4517.44
408 4517.44
409 4517.44
410 4517.44
411 4517.44
412 4517.44
413 4517.44
414 4517.44
415 4517.44
416 4517.44
417 4517.44
418 4517.44
419 4517.44
420 4517.44
421 4517.44
422 4517.44
423 4517.44
424 4517.44
425 4517.44
426 4517.44
427 4517.44
428 4517.44
429 4517.44
430 4517.44
431 4517.44
432 4517.44
433 4517.44
434 4517.44
435 4517.44
436 4517.44
437 4517.44
438 4517.44
439 4517.44
440 4517.44
441 4517.44
442 4517.44
443 4517.44
444 4517.44
445 4517.44
446 4517.44
447 4517.44
448 4517.44
449 4517.44
450 4517.44
451 4517.44
452 4517.44
453 4517.44
454 4517.44
455 4517.44
456 4517.44
457 4517.44
458 4517.44
459 4517.44
460 4517.44
461 4517.44
462 4517.44
463 4517.44
464 4517.44
465 4517.44
466 4517.44
467 4517.44
468 4517.44
469 4517.44
470 4517.44
471 4517.44
472 4517.44
473 4517.44
474 4517.44
475 4517.44
476 4517.44
477 4517.44
478 4517.44
479 4517.44
480 4517.44
481 4517.44
482 4517.44
483 4517.44
484 4517.44
485 4517.44
486 4517.44
487 4517.44
488 4517.44
489 4517.44
490 4517.44
491 4517.44
492 4517.44
493 4517.44
494 4517.44
495 4517.44
496 4517.44
497 4517.44
498 4517.44
499 4517.44
2 2 10 5 0 0 